! extopt goat pal4
%method
  progext "../../maceclient.sh"
end
*xyz 0 1
  O  0.000000  0.000000  0.000000
  H  0.000000  0.000000  0.960000
  H  0.000000  0.750000 -0.240000
*

