! extopt opt
%method
  progext "../../mace.sh"
end
*xyz 0 1
  H 0 0 0
  F 0 0 0.9
*

